80 9436147
26 2 29 63 39 14 41 20 1 24 60 23 80 27 7 69 61 45 52 12 44 59 58 21 36 46 43 8 13 71 73 28 72 15 18 77 74 62 70 76 17 4 51 65 6 55 3 30 38 33 22 56 48 64 67 40 57 42 34 5 54 19 11 35 50 31 68 66 47 37 78 79 25 75 9 10 32 53 49 16 
